NAME : X-n449-k29
COMMENT : "Generated by Uchoa, Pecin, Pessoa, Poggi, Subramanian, and Vidal (2013)"
TYPE : CVRP
DIMENSION : 449
EDGE_WEIGHT_TYPE : EUC_2D
CAPACITY : 777
NODE_COORD_SECTION
1 0 0
2 300 71
3 434 4
4 257 798
5 718 17
6 879 206
7 929 330
8 353 793
9 389 540
10 202 55
11 417 253
12 921 572
13 94 788
14 870 327
15 281 124
16 411 288
17 882 116
18 307 240
19 359 935
20 352 858
21 502 776
22 269 33
23 440 814
24 850 461
25 909 404
26 339 458
27 767 535
28 86 47
29 758 532
30 426 282
31 534 10
32 826 830
33 911 79
34 270 791
35 391 794
36 908 787
37 929 858
38 938 281
39 941 579
40 752 162
41 579 68
42 323 570
43 238 700
44 853 970
45 329 805
46 651 486
47 291 631
48 286 481
49 855 547
50 972 378
51 561 490
52 205 741
53 528 672
54 664 605
55 462 532
56 340 54
57 929 941
58 936 46
59 864 654
60 501 495
61 339 10
62 324 595
63 585 893
64 73 401
65 244 926
66 190 659
67 900 929
68 525 878
69 832 622
70 228 662
71 36 578
72 897 292
73 492 426
74 958 546
75 674 303
76 312 781
77 320 557
78 226 264
79 446 702
80 470 746
81 613 620
82 710 289
83 439 15
84 148 352
85 371 115
86 414 108
87 693 626
88 703 31
89 798 932
90 170 723
91 700 554
92 569 984
93 801 849
94 139 150
95 907 964
96 757 670
97 490 37
98 311 927
99 210 657
100 357 320
101 677 558
102 1 599
103 464 579
104 39 430
105 379 863
106 355 233
107 974 313
108 551 258
109 315 294
110 846 911
111 997 585
112 214 331
113 407 584
114 775 225
115 244 761
116 433 941
117 281 357
118 771 792
119 381 345
120 188 643
121 766 627
122 292 735
123 526 487
124 540 762
125 392 298
126 124 199
127 748 473
128 123 885
129 896 666
130 882 844
131 572 231
132 656 366
133 715 918
134 505 341
135 475 831
136 430 827
137 489 629
138 765 883
139 388 981
140 817 650
141 565 267
142 759 674
143 192 532
144 767 488
145 488 690
146 414 436
147 226 976
148 308 756
149 509 647
150 985 906
151 778 941
152 45 137
153 81 276
154 552 334
155 591 702
156 664 79
157 363 607
158 529 992
159 361 670
160 425 296
161 714 61
162 152 660
163 236 900
164 670 265
165 194 950
166 991 139
167 320 583
168 317 732
169 73 974
170 437 745
171 166 556
172 362 207
173 319 725
174 216 807
175 284 793
176 380 466
177 104 187
178 879 171
179 635 910
180 23 49
181 304 234
182 304 700
183 132 663
184 525 767
185 997 129
186 200 771
187 145 449
188 191 188
189 965 27
190 602 777
191 994 807
192 912 153
193 192 474
194 373 626
195 452 913
196 650 266
197 367 905
198 707 243
199 247 86
200 951 396
201 381 147
202 622 68
203 559 288
204 435 179
205 829 919
206 467 557
207 521 617
208 302 515
209 507 326
210 418 680
211 720 814
212 831 70
213 917 369
214 981 425
215 695 761
216 876 779
217 760 436
218 485 294
219 439 979
220 373 336
221 445 807
222 594 805
223 898 130
224 833 707
225 582 152
226 795 991
227 469 520
228 847 620
229 482 33
230 906 903
231 507 591
232 582 69
233 663 401
234 570 103
235 816 427
236 286 816
237 344 97
238 763 175
239 153 254
240 784 886
241 947 357
242 283 214
243 732 938
244 979 69
245 596 302
246 263 331
247 716 484
248 349 425
249 622 447
250 658 154
251 722 540
252 457 775
253 55 197
254 755 326
255 321 894
256 438 207
257 132 347
258 666 5
259 539 973
260 508 576
261 790 584
262 835 367
263 350 346
264 460 1
265 168 983
266 531 101
267 187 224
268 166 368
269 113 512
270 351 913
271 432 956
272 75 828
273 671 529
274 724 22
275 921 532
276 717 296
277 593 283
278 402 668
279 444 83
280 195 955
281 833 413
282 969 601
283 243 384
284 695 753
285 46 448
286 334 591
287 516 345
288 979 904
289 94 309
290 237 920
291 910 520
292 886 385
293 539 808
294 746 888
295 26 603
296 836 442
297 147 144
298 754 310
299 923 928
300 324 85
301 387 412
302 484 17
303 605 970
304 427 591
305 933 93
306 990 355
307 536 845
308 296 1000
309 158 562
310 648 685
311 130 810
312 663 619
313 642 583
314 667 885
315 255 761
316 336 521
317 667 810
318 583 849
319 731 736
320 703 45
321 718 288
322 760 984
323 833 412
324 229 296
325 982 954
326 889 715
327 786 610
328 958 642
329 850 134
330 490 982
331 272 789
332 10 217
333 417 46
334 411 740
335 925 548
336 87 425
337 980 299
338 330 462
339 829 128
340 966 431
341 540 389
342 249 633
343 24 912
344 2 667
345 300 206
346 2 256
347 5 919
348 630 330
349 167 531
350 751 349
351 216 314
352 862 885
353 251 533
354 481 446
355 557 899
356 788 560
357 365 273
358 512 96
359 879 619
360 77 850
361 526 204
362 989 364
363 486 57
364 475 14
365 451 667
366 382 331
367 639 940
368 307 581
369 63 396
370 996 593
371 47 631
372 977 840
373 990 13
374 458 762
375 377 639
376 464 348
377 56 534
378 226 964
379 746 109
380 828 428
381 798 863
382 87 343
383 222 330
384 706 670
385 947 294
386 654 559
387 333 230
388 813 426
389 943 15
390 868 284
391 553 878
392 443 317
393 425 603
394 500 710
395 815 983
396 969 727
397 740 523
398 647 40
399 999 394
400 337 308
401 433 635
402 236 999
403 443 604
404 579 476
405 756 686
406 523 320
407 438 242
408 297 913
409 162 816
410 588 258
411 725 582
412 178 67
413 808 54
414 843 80
415 1000 36
416 484 651
417 53 823
418 526 570
419 411 657
420 554 145
421 962 430
422 204 527
423 61 638
424 307 292
425 799 580
426 273 266
427 507 816
428 740 604
429 534 864
430 456 118
431 254 162
432 427 857
433 339 265
434 303 930
435 266 296
436 21 590
437 90 656
438 694 561
439 456 972
440 754 612
441 866 302
442 337 390
443 192 588
444 933 496
445 448 357
446 267 811
447 797 680
448 447 79
449 821 367
PICKUP_AND_DELIVERY_SECTION
1 0 0 1000000000 0 0 0
2 0 0 1000000000 0 0 35
3 0 0 1000000000 0 0 74
4 0 0 1000000000 0 0 5
5 0 0 1000000000 0 0 43
6 0 0 1000000000 0 0 27
7 0 0 1000000000 0 0 97
8 0 0 1000000000 0 0 68
9 0 0 1000000000 0 0 77
10 0 0 1000000000 0 0 78
11 0 0 1000000000 0 8 0
12 0 0 1000000000 0 0 66
13 0 0 1000000000 0 0 15
14 0 0 1000000000 0 0 92
15 0 0 1000000000 0 0 3
16 0 0 1000000000 0 0 90
17 0 0 1000000000 0 0 39
18 0 0 1000000000 0 0 57
19 0 0 1000000000 0 0 29
20 0 0 1000000000 0 0 82
21 0 0 1000000000 0 81 0
22 0 0 1000000000 0 0 4
23 0 0 1000000000 0 0 90
24 0 0 1000000000 0 0 9
25 0 0 1000000000 0 0 95
26 0 0 1000000000 0 0 6
27 0 0 1000000000 0 0 82
28 0 0 1000000000 0 0 66
29 0 0 1000000000 0 0 50
30 0 0 1000000000 0 0 83
31 0 0 1000000000 0 48 0
32 0 0 1000000000 0 0 4
33 0 0 1000000000 0 0 54
34 0 0 1000000000 0 0 45
35 0 0 1000000000 0 0 64
36 0 0 1000000000 0 0 77
37 0 0 1000000000 0 0 96
38 0 0 1000000000 0 0 56
39 0 0 1000000000 0 0 44
40 0 0 1000000000 0 0 25
41 0 0 1000000000 0 18 0
42 0 0 1000000000 0 0 23
43 0 0 1000000000 0 0 74
44 0 0 1000000000 0 0 69
45 0 0 1000000000 0 0 8
46 0 0 1000000000 0 0 9
47 0 0 1000000000 0 0 70
48 0 0 1000000000 0 0 42
49 0 0 1000000000 0 0 25
50 0 0 1000000000 0 0 73
51 0 0 1000000000 0 61 0
52 0 0 1000000000 0 0 41
53 0 0 1000000000 0 0 38
54 0 0 1000000000 0 0 35
55 0 0 1000000000 0 0 97
56 0 0 1000000000 0 0 97
57 0 0 1000000000 0 0 3
58 0 0 1000000000 0 0 62
59 0 0 1000000000 0 0 79
60 0 0 1000000000 0 0 87
61 0 0 1000000000 0 52 0
62 0 0 1000000000 0 0 85
63 0 0 1000000000 0 0 21
64 0 0 1000000000 0 0 50
65 0 0 1000000000 0 0 18
66 0 0 1000000000 0 0 38
67 0 0 1000000000 0 0 30
68 0 0 1000000000 0 0 48
69 0 0 1000000000 0 0 80
70 0 0 1000000000 0 0 19
71 0 0 1000000000 0 15 0
72 0 0 1000000000 0 0 33
73 0 0 1000000000 0 0 28
74 0 0 1000000000 0 0 83
75 0 0 1000000000 0 0 19
76 0 0 1000000000 0 0 58
77 0 0 1000000000 0 0 67
78 0 0 1000000000 0 0 53
79 0 0 1000000000 0 0 78
80 0 0 1000000000 0 0 97
81 0 0 1000000000 0 28 0
82 0 0 1000000000 0 0 61
83 0 0 1000000000 0 0 2
84 0 0 1000000000 0 0 99
85 0 0 1000000000 0 0 21
86 0 0 1000000000 0 0 12
87 0 0 1000000000 0 0 86
88 0 0 1000000000 0 0 64
89 0 0 1000000000 0 0 1
90 0 0 1000000000 0 0 71
91 0 0 1000000000 0 38 0
92 0 0 1000000000 0 0 46
93 0 0 1000000000 0 0 64
94 0 0 1000000000 0 0 79
95 0 0 1000000000 0 0 42
96 0 0 1000000000 0 0 76
97 0 0 1000000000 0 0 71
98 0 0 1000000000 0 0 92
99 0 0 1000000000 0 0 37
100 0 0 1000000000 0 0 20
101 0 0 1000000000 0 84 0
102 0 0 1000000000 0 0 43
103 0 0 1000000000 0 0 26
104 0 0 1000000000 0 0 47
105 0 0 1000000000 0 0 50
106 0 0 1000000000 0 0 36
107 0 0 1000000000 0 0 9
108 0 0 1000000000 0 0 37
109 0 0 1000000000 0 0 81
110 0 0 1000000000 0 0 54
111 0 0 1000000000 0 42 0
112 0 0 1000000000 0 0 7
113 0 0 1000000000 0 0 89
114 0 0 1000000000 0 0 100
115 0 0 1000000000 0 0 17
116 0 0 1000000000 0 0 60
117 0 0 1000000000 0 0 20
118 0 0 1000000000 0 0 66
119 0 0 1000000000 0 0 73
120 0 0 1000000000 0 0 62
121 0 0 1000000000 0 30 0
122 0 0 1000000000 0 0 13
123 0 0 1000000000 0 0 26
124 0 0 1000000000 0 0 46
125 0 0 1000000000 0 0 79
126 0 0 1000000000 0 0 93
127 0 0 1000000000 0 0 28
128 0 0 1000000000 0 0 34
129 0 0 1000000000 0 0 51
130 0 0 1000000000 0 0 85
131 0 0 1000000000 0 51 0
132 0 0 1000000000 0 0 96
133 0 0 1000000000 0 0 1
134 0 0 1000000000 0 0 58
135 0 0 1000000000 0 0 92
136 0 0 1000000000 0 0 18
137 0 0 1000000000 0 0 22
138 0 0 1000000000 0 0 61
139 0 0 1000000000 0 0 10
140 0 0 1000000000 0 0 9
141 0 0 1000000000 0 43 0
142 0 0 1000000000 0 0 39
143 0 0 1000000000 0 0 78
144 0 0 1000000000 0 0 27
145 0 0 1000000000 0 0 49
146 0 0 1000000000 0 0 68
147 0 0 1000000000 0 0 71
148 0 0 1000000000 0 0 27
149 0 0 1000000000 0 0 26
150 0 0 1000000000 0 0 23
151 0 0 1000000000 0 73 0
152 0 0 1000000000 0 0 45
153 0 0 1000000000 0 0 30
154 0 0 1000000000 0 0 65
155 0 0 1000000000 0 0 7
156 0 0 1000000000 0 0 90
157 0 0 1000000000 0 0 85
158 0 0 1000000000 0 0 56
159 0 0 1000000000 0 0 93
160 0 0 1000000000 0 0 78
161 0 0 1000000000 0 1 0
162 0 0 1000000000 0 0 96
163 0 0 1000000000 0 0 37
164 0 0 1000000000 0 0 80
165 0 0 1000000000 0 0 20
166 0 0 1000000000 0 0 90
167 0 0 1000000000 0 0 30
168 0 0 1000000000 0 0 100
169 0 0 1000000000 0 0 86
170 0 0 1000000000 0 0 35
171 0 0 1000000000 0 87 0
172 0 0 1000000000 0 0 76
173 0 0 1000000000 0 0 42
174 0 0 1000000000 0 0 36
175 0 0 1000000000 0 0 2
176 0 0 1000000000 0 0 7
177 0 0 1000000000 0 0 49
178 0 0 1000000000 0 0 42
179 0 0 1000000000 0 0 31
180 0 0 1000000000 0 0 4
181 0 0 1000000000 0 30 0
182 0 0 1000000000 0 0 12
183 0 0 1000000000 0 0 3
184 0 0 1000000000 0 0 65
185 0 0 1000000000 0 0 43
186 0 0 1000000000 0 0 6
187 0 0 1000000000 0 0 47
188 0 0 1000000000 0 0 82
189 0 0 1000000000 0 0 75
190 0 0 1000000000 0 0 95
191 0 0 1000000000 0 54 0
192 0 0 1000000000 0 0 60
193 0 0 1000000000 0 0 61
194 0 0 1000000000 0 0 2
195 0 0 1000000000 0 0 62
196 0 0 1000000000 0 0 75
197 0 0 1000000000 0 0 31
198 0 0 1000000000 0 0 68
199 0 0 1000000000 0 0 55
200 0 0 1000000000 0 0 47
201 0 0 1000000000 0 82 0
202 0 0 1000000000 0 0 37
203 0 0 1000000000 0 0 6
204 0 0 1000000000 0 0 43
205 0 0 1000000000 0 0 69
206 0 0 1000000000 0 0 74
207 0 0 1000000000 0 0 29
208 0 0 1000000000 0 0 3
209 0 0 1000000000 0 0 29
210 0 0 1000000000 0 0 100
211 0 0 1000000000 0 62 0
212 0 0 1000000000 0 0 92
213 0 0 1000000000 0 0 22
214 0 0 1000000000 0 0 61
215 0 0 1000000000 0 0 77
216 0 0 1000000000 0 0 76
217 0 0 1000000000 0 0 9
218 0 0 1000000000 0 0 14
219 0 0 1000000000 0 0 12
220 0 0 1000000000 0 0 24
221 0 0 1000000000 0 38 0
222 0 0 1000000000 0 0 38
223 0 0 1000000000 0 0 27
224 0 0 1000000000 0 0 33
225 0 0 1000000000 0 0 71
226 0 0 1000000000 0 0 82
227 0 0 1000000000 0 0 90
228 0 0 1000000000 0 0 83
229 0 0 1000000000 0 0 27
230 0 0 1000000000 0 0 20
231 0 0 1000000000 0 83 0
232 0 0 1000000000 0 0 11
233 0 0 1000000000 0 0 52
234 0 0 1000000000 0 0 45
235 0 0 1000000000 0 0 33
236 0 0 1000000000 0 0 12
237 0 0 1000000000 0 0 16
238 0 0 1000000000 0 0 80
239 0 0 1000000000 0 0 75
240 0 0 1000000000 0 0 67
241 0 0 1000000000 0 29 0
242 0 0 1000000000 0 0 22
243 0 0 1000000000 0 0 29
244 0 0 1000000000 0 0 96
245 0 0 1000000000 0 0 94
246 0 0 1000000000 0 0 99
247 0 0 1000000000 0 0 12
248 0 0 1000000000 0 0 31
249 0 0 1000000000 0 0 68
250 0 0 1000000000 0 0 66
251 0 0 1000000000 0 67 0
252 0 0 1000000000 0 0 19
253 0 0 1000000000 0 0 65
254 0 0 1000000000 0 0 15
255 0 0 1000000000 0 0 26
256 0 0 1000000000 0 0 51
257 0 0 1000000000 0 0 72
258 0 0 1000000000 0 0 15
259 0 0 1000000000 0 0 88
260 0 0 1000000000 0 0 8
261 0 0 1000000000 0 96 0
262 0 0 1000000000 0 0 75
263 0 0 1000000000 0 0 28
264 0 0 1000000000 0 0 45
265 0 0 1000000000 0 0 35
266 0 0 1000000000 0 0 37
267 0 0 1000000000 0 0 33
268 0 0 1000000000 0 0 85
269 0 0 1000000000 0 0 71
270 0 0 1000000000 0 0 84
271 0 0 1000000000 0 56 0
272 0 0 1000000000 0 0 52
273 0 0 1000000000 0 0 91
274 0 0 1000000000 0 0 84
275 0 0 1000000000 0 0 98
276 0 0 1000000000 0 0 19
277 0 0 1000000000 0 0 34
278 0 0 1000000000 0 0 53
279 0 0 1000000000 0 0 22
280 0 0 1000000000 0 0 83
281 0 0 1000000000 0 60 0
282 0 0 1000000000 0 0 41
283 0 0 1000000000 0 0 78
284 0 0 1000000000 0 0 72
285 0 0 1000000000 0 0 46
286 0 0 1000000000 0 0 52
287 0 0 1000000000 0 0 67
288 0 0 1000000000 0 0 66
289 0 0 1000000000 0 0 5
290 0 0 1000000000 0 0 77
291 0 0 1000000000 0 20 0
292 0 0 1000000000 0 0 54
293 0 0 1000000000 0 0 31
294 0 0 1000000000 0 0 60
295 0 0 1000000000 0 0 8
296 0 0 1000000000 0 0 3
297 0 0 1000000000 0 0 73
298 0 0 1000000000 0 0 90
299 0 0 1000000000 0 0 73
300 0 0 1000000000 0 0 67
301 0 0 1000000000 0 26 0
302 0 0 1000000000 0 0 12
303 0 0 1000000000 0 0 87
304 0 0 1000000000 0 0 12
305 0 0 1000000000 0 0 55
306 0 0 1000000000 0 0 65
307 0 0 1000000000 0 0 36
308 0 0 1000000000 0 0 63
309 0 0 1000000000 0 0 35
310 0 0 1000000000 0 0 51
311 0 0 1000000000 0 24 0
312 0 0 1000000000 0 0 85
313 0 0 1000000000 0 0 28
314 0 0 1000000000 0 0 18
315 0 0 1000000000 0 0 12
316 0 0 1000000000 0 0 84
317 0 0 1000000000 0 0 73
318 0 0 1000000000 0 0 78
319 0 0 1000000000 0 0 67
320 0 0 1000000000 0 0 33
321 0 0 1000000000 0 10 0
322 0 0 1000000000 0 0 47
323 0 0 1000000000 0 0 53
324 0 0 1000000000 0 0 22
325 0 0 1000000000 0 0 21
326 0 0 1000000000 0 0 4
327 0 0 1000000000 0 0 37
328 0 0 1000000000 0 0 37
329 0 0 1000000000 0 0 6
330 0 0 1000000000 0 0 84
331 0 0 1000000000 0 16 0
332 0 0 1000000000 0 0 61
333 0 0 1000000000 0 0 73
334 0 0 1000000000 0 0 93
335 0 0 1000000000 0 0 84
336 0 0 1000000000 0 0 99
337 0 0 1000000000 0 0 61
338 0 0 1000000000 0 0 44
339 0 0 1000000000 0 0 6
340 0 0 1000000000 0 0 32
341 0 0 1000000000 0 87 0
342 0 0 1000000000 0 0 22
343 0 0 1000000000 0 0 34
344 0 0 1000000000 0 0 90
345 0 0 1000000000 0 0 11
346 0 0 1000000000 0 0 74
347 0 0 1000000000 0 0 32
348 0 0 1000000000 0 0 60
349 0 0 1000000000 0 0 36
350 0 0 1000000000 0 0 22
351 0 0 1000000000 0 40 0
352 0 0 1000000000 0 0 4
353 0 0 1000000000 0 0 28
354 0 0 1000000000 0 0 3
355 0 0 1000000000 0 0 53
356 0 0 1000000000 0 0 17
357 0 0 1000000000 0 0 57
358 0 0 1000000000 0 0 34
359 0 0 1000000000 0 0 31
360 0 0 1000000000 0 0 2
361 0 0 1000000000 0 74 0
362 0 0 1000000000 0 0 96
363 0 0 1000000000 0 0 30
364 0 0 1000000000 0 0 69
365 0 0 1000000000 0 0 100
366 0 0 1000000000 0 0 56
367 0 0 1000000000 0 0 62
368 0 0 1000000000 0 0 67
369 0 0 1000000000 0 0 51
370 0 0 1000000000 0 0 98
371 0 0 1000000000 0 76 0
372 0 0 1000000000 0 0 28
373 0 0 1000000000 0 0 80
374 0 0 1000000000 0 0 93
375 0 0 1000000000 0 0 66
376 0 0 1000000000 0 0 52
377 0 0 1000000000 0 0 49
378 0 0 1000000000 0 0 87
379 0 0 1000000000 0 0 5
380 0 0 1000000000 0 0 1
381 0 0 1000000000 0 26 0
382 0 0 1000000000 0 0 11
383 0 0 1000000000 0 0 2
384 0 0 1000000000 0 0 32
385 0 0 1000000000 0 0 99
386 0 0 1000000000 0 0 24
387 0 0 1000000000 0 0 84
388 0 0 1000000000 0 0 41
389 0 0 1000000000 0 0 30
390 0 0 1000000000 0 0 79
391 0 0 1000000000 0 5 0
392 0 0 1000000000 0 0 49
393 0 0 1000000000 0 0 18
394 0 0 1000000000 0 0 5
395 0 0 1000000000 0 0 79
396 0 0 1000000000 0 0 95
397 0 0 1000000000 0 0 99
398 0 0 1000000000 0 0 27
399 0 0 1000000000 0 0 37
400 0 0 1000000000 0 0 68
401 0 0 1000000000 0 64 0
402 0 0 1000000000 0 0 5
403 0 0 1000000000 0 0 10
404 0 0 1000000000 0 0 56
405 0 0 1000000000 0 0 5
406 0 0 1000000000 0 0 94
407 0 0 1000000000 0 0 37
408 0 0 1000000000 0 0 23
409 0 0 1000000000 0 0 85
410 0 0 1000000000 0 0 35
411 0 0 1000000000 0 97 0
412 0 0 1000000000 0 0 12
413 0 0 1000000000 0 0 32
414 0 0 1000000000 0 0 73
415 0 0 1000000000 0 0 70
416 0 0 1000000000 0 0 70
417 0 0 1000000000 0 0 65
418 0 0 1000000000 0 0 88
419 0 0 1000000000 0 0 13
420 0 0 1000000000 0 0 98
421 0 0 1000000000 0 30 0
422 0 0 1000000000 0 0 67
423 0 0 1000000000 0 0 76
424 0 0 1000000000 0 0 32
425 0 0 1000000000 0 0 79
426 0 0 1000000000 0 0 88
427 0 0 1000000000 0 0 30
428 0 0 1000000000 0 0 42
429 0 0 1000000000 0 0 61
430 0 0 1000000000 0 0 37
431 0 0 1000000000 0 26 0
432 0 0 1000000000 0 0 56
433 0 0 1000000000 0 0 42
434 0 0 1000000000 0 0 44
435 0 0 1000000000 0 0 75
436 0 0 1000000000 0 0 18
437 0 0 1000000000 0 0 53
438 0 0 1000000000 0 0 51
439 0 0 1000000000 0 0 62
440 0 0 1000000000 0 0 57
441 0 0 1000000000 0 57 0
442 0 0 1000000000 0 0 97
443 0 0 1000000000 0 0 74
444 0 0 1000000000 0 0 96
445 0 0 1000000000 0 0 47
446 0 0 1000000000 0 0 36
447 0 0 1000000000 0 0 57
448 0 0 1000000000 0 0 71
449 0 0 1000000000 0 0 65
